(set-logic QF_S)
(declare-fun var_0xINPUT_292716 () String)
(assert (and (= (len var_0xINPUT_292716) 0) (= (len var_0xINPUT_292716) 0) (not (= var_0xINPUT_292716 "Example:")) (= (len var_0xINPUT_292716) 0)))
(check-sat var_0xINPUT_292716)